Version identifier: 12.10.0.0 | 2019-11-26 | 843d4de
CPXPARAM_WorkMem                                 28672
Tried aggregator 2 times.
Aggregator did 60 substitutions.
Reduced MIP has 203 rows, 240 columns, and 906 nonzeros.
Reduced MIP has 240 binaries, 0 generals, 0 SOSs, and 0 indicators.
Presolve time = 0,00 sec. (0,86 ticks)
Found incumbent of value 978,000000 after 0,00 sec. (1,50 ticks)
Probing time = 0,00 sec. (0,31 ticks)
Tried aggregator 1 time.
Detecting symmetries...
MIP Presolve eliminated 48 rows and 0 columns.
MIP Presolve added 96 rows and 0 columns.
Reduced MIP has 251 rows, 240 columns, and 954 nonzeros.
Reduced MIP has 240 binaries, 0 generals, 0 SOSs, and 0 indicators.
Presolve time = 0,00 sec. (1,03 ticks)
Probing time = 0,00 sec. (0,30 ticks)
Clique table members: 626.
MIP emphasis: balance optimality and feasibility.
MIP search method: dynamic search.
Parallel mode: deterministic, using up to 16 threads.
Root relaxation solution time = 0,00 sec. (1,11 ticks)

        Nodes                                         Cuts/
   Node  Left     Objective  IInf  Best Integer    Best Bound    ItCnt     Gap

*     0+    0                          978,0000        0,0000           100,00%
*     0+    0                          569,0000        0,0000           100,00%
*     0+    0                          556,0000        0,0000           100,00%
      0     0      326,0000   219      556,0000      326,0000      113   41,37%
      0     0      326,0111   219      556,0000     Cuts: 158      176   41,36%
      0     0      328,0884   219      556,0000     Cuts: 158      223   40,99%
      0     0      329,2087   219      556,0000     Cuts: 132      244   40,79%
      0     0      329,4461   219      556,0000     Cuts: 111      258   40,75%
      0     0      329,7681   219      556,0000      Cuts: 39      269   40,69%
Detecting symmetries...
      0     0      329,7837   219      556,0000     Cuts: 134      274   40,69%
*     0+    0                          536,0000      329,7837            38,47%
Detecting symmetries...
      0     2      329,7837   239      536,0000      356,7042      274   33,45%
Elapsed time = 0,14 sec. (69,24 ticks, tree = 0,02 MB, solutions = 4)
*  1624+  863                          535,0000      421,5680            21,20%
*  1797+  972                          534,0000      425,7962            20,26%
*  2586+ 1360                          530,0000      443,3690            16,35%
   2987  1559      503,8229    81      530,0000      453,5916    88649   14,42%
*  3569+ 1799                          523,0000      460,5397            11,94%
   6042  1607        cutoff            523,0000      495,7277   214147    5,21%

Performing restart 1

Repeating presolve.
Tried aggregator 1 time.
Reduced MIP has 251 rows, 240 columns, and 954 nonzeros.
Reduced MIP has 240 binaries, 0 generals, 0 SOSs, and 0 indicators.
Presolve time = 0,00 sec. (0,55 ticks)
Tried aggregator 1 time.
Reduced MIP has 251 rows, 240 columns, and 954 nonzeros.
Reduced MIP has 240 binaries, 0 generals, 0 SOSs, and 0 indicators.
Presolve time = 0,00 sec. (0,71 ticks)
Represolve time = 0,01 sec. (7,84 ticks)
   6274     0      331,6556   239      523,0000       Cuts: 4   225644    4,20%
   6274     0      333,7018   239      523,0000       Cuts: 8   225677    4,20%
   6274     0      335,8018   239      523,0000       Cuts: 7   225730    4,20%
   6274     0      336,9368   239      523,0000      Fract: 3   225750    4,20%
   6274     0      337,6829   239      523,0000      Fract: 5   225782    4,20%
   6274     0      339,7797   239      523,0000      Fract: 9   225857    4,20%
   6274     2      339,7797   239      523,0000      501,0411   225857    4,20%
   7117   441      508,0840    81      523,0000      501,0411   247451    4,20%
   9187  1801      450,4647   201      523,0000      501,0411   320810    4,20%
  11510  3605      518,7998   119      523,0000      501,0411   399523    4,20%
  14152  4890      520,3563   107      523,0000      501,0411   474800    4,20%

Performing restart 2

Repeating presolve.
Tried aggregator 1 time.
Reduced MIP has 251 rows, 240 columns, and 954 nonzeros.
Reduced MIP has 240 binaries, 0 generals, 0 SOSs, and 0 indicators.
Presolve time = 0,00 sec. (0,55 ticks)
Tried aggregator 1 time.
Reduced MIP has 251 rows, 240 columns, and 954 nonzeros.
Reduced MIP has 240 binaries, 0 generals, 0 SOSs, and 0 indicators.
Presolve time = 0,00 sec. (0,71 ticks)
Represolve time = 0,03 sec. (18,18 ticks)
  14395     0      341,0734   239      523,0000      Fract: 1   492501    4,20%
  14395     0      341,4503   239      523,0000      Fract: 1   492536    4,20%
  14395     0      341,7930   239      523,0000      Fract: 4   492560    4,20%
  14395     0      342,6095   239      523,0000      Fract: 5   492616    4,20%
  14395     0      342,9079   239      523,0000       Cuts: 4   492642    4,20%
  14395     2      342,9079   239      523,0000      501,0411   492642    4,20%
  16490   947      453,7252   197      523,0000      501,0411   571108    4,20%

Clique cuts applied:  38
Cover cuts applied:  423
Flow cuts applied:  2
Mixed integer rounding cuts applied:  43
Lift and project cuts applied:  3
Gomory fractional cuts applied:  34

Root node processing (before b&c):
  Real time             =    0,14 sec. (68,91 ticks)
Parallel b&c, 16 threads:
  Real time             =    3,13 sec. (2531,49 ticks)
  Sync time (average)   =    0,85 sec.
  Wait time (average)   =    0,01 sec.
                          ------------
Total (root+branch&cut) =    3,27 sec. (2600,40 ticks)
